0 115 
1 115 
2 118 
3 122 
4 125 
5 123 
6 119 
7 118 
8 116 
9 115 
10 110 
11 110 
12 110 
13 105 
14 102 
15 103 
16 101 
17 101 
18 100 
19 100 
20 98 
21 96 
22 98 
23 96 
24 96 
25 97 
26 95 
27 95 
28 92 
29 89 
30 86 
31 84 
32 82 
33 81 
34 81 
35 78 
36 77 
37 75 
38 71 
39 70 
40 64 
41 66 
42 71 
43 69 
44 67 
45 65 
46 63 
47 63 
48 61 
49 58 
50 60 
51 59 
52 59 
53 60 
54 57 
55 55 
56 50 
57 55 
58 52 
59 49 
60 50 
61 45 
62 46 
63 44 
64 45 
65 42 
66 43 
67 40 
68 40 
69 39 
70 39 
71 37 
72 35 
73 33 
74 30 
75 25 
76 23 
77 22 
78 20 
79 19 
80 18 
81 17 
82 18 
83 19 
84 17 
85 18 
86 17 
87 17 
88 15 
89 15 
90 14 
91 15 
92 13 
93 12 
94 9 
95 10 
96 9 
97 7 
98 6 
99 6 
100 5 
101 5 
102 4 
103 2 
104 0 
105 0 

